; benchmark generated from python API
(set-info :status unknown)
(declare-fun x_months () Int)
(declare-fun x_beta () Int)
(declare-fun y_months () Int)
(declare-fun y_beta () Int)
(declare-fun z_months () Int)
(declare-fun z_beta () Int)
(assert
 (<= (- 1202) x_months))
(assert
 (>= 1209 x_months))
(assert
 (>= x_beta 0))
(assert
 (let ((?x3543 (+ x_months 24003)))
 (let ((?x1301 (- ?x3543 (* (div (- ?x3543 1) 12) 12))))
 (let ((?x4164 (ite (or (= ?x1301 4) (= ?x1301 6) (= ?x1301 9) (= ?x1301 11)) 30 31)))
 (let (($x490 (and (= (mod (div (- ?x3543 1) 12) 4) 0) (and (distinct (mod (div (- ?x3543 1) 12) 100) 0) true))))
 (let ((?x3476 (ite (or $x490 (= (mod (div (- ?x3543 1) 12) 400) 0)) 29 28)))
 (< x_beta (ite (= ?x1301 2) ?x3476 ?x4164))))))))
(assert
 (and (= x_months (- (+ (* 2023 12) 1) 24003)) (= 30 x_beta)))
(assert
 (<= (- 1202) y_months))
(assert
 (>= 1209 y_months))
(assert
 (>= y_beta 0))
(assert
 (let ((?x2329 (+ y_months 24003)))
 (let ((?x3586 (- ?x2329 (* (div (- ?x2329 1) 12) 12))))
 (let ((?x2165 (ite (or (= ?x3586 4) (= ?x3586 6) (= ?x3586 9) (= ?x3586 11)) 30 31)))
 (let (($x3494 (and (= (mod (div (- ?x2329 1) 12) 4) 0) (and (distinct (mod (div (- ?x2329 1) 12) 100) 0) true))))
 (let ((?x894 (ite (or $x3494 (= (mod (div (- ?x2329 1) 12) 400) 0)) 29 28)))
 (< y_beta (ite (= ?x3586 2) ?x894 ?x2165))))))))
(assert
 (<= (- 1202) z_months))
(assert
 (>= 1209 z_months))
(assert
 (>= z_beta 0))
(assert
 (let ((?x3509 (+ z_months 24003)))
 (let ((?x3624 (- ?x3509 (* (div (- ?x3509 1) 12) 12))))
 (let ((?x2209 (ite (or (= ?x3624 4) (= ?x3624 6) (= ?x3624 9) (= ?x3624 11)) 30 31)))
 (let (($x3164 (and (= (mod (div (- ?x3509 1) 12) 4) 0) (and (distinct (mod (div (- ?x3509 1) 12) 100) 0) true))))
 (let ((?x3182 (ite (or $x3164 (= (mod (div (- ?x3509 1) 12) 400) 0)) 29 28)))
 (< z_beta (ite (= ?x3624 2) ?x3182 ?x2209))))))))
(assert
 (let ((?x828 (+ x_beta 1)))
 (let ((?x507 (+ (+ x_months 1) 24003)))
 (let ((?x213 (- ?x507 (* (div (- ?x507 1) 12) 12))))
 (let ((?x2258 (ite (or (= ?x213 4) (= ?x213 6) (= ?x213 9) (= ?x213 11)) 30 31)))
 (let (($x2349 (and (= (mod (div (- ?x507 1) 12) 4) 0) (and (distinct (mod (div (- ?x507 1) 12) 100) 0) true))))
 (let (($x3426 (or $x2349 (= (mod (div (- ?x507 1) 12) 400) 0))))
 (let ((?x3456 (ite (= ?x213 2) (ite $x3426 29 28) ?x2258)))
 (let (($x1862 (> 1 ?x828)))
 (let ((?x885 (ite $x1862 1 (ite (> ?x828 ?x3456) ?x3456 ?x828))))
 (let ((?x792 (ite (> 1 ?x885) 1 (ite (> ?x885 ?x3456) ?x3456 ?x885))))
 (let ((?x1975 (ite (= 2 ?x213) (ite $x3426 31 31) (ite (= 1 ?x213) (ite $x3426 0 0) 0))))
 (let ((?x3411 (ite (= 4 ?x213) (ite $x3426 91 90) (ite (= 3 ?x213) (ite $x3426 60 59) ?x1975))))
 (let ((?x4374 (ite (= 6 ?x213) (ite $x3426 152 151) (ite (= 5 ?x213) (ite $x3426 121 120) ?x3411))))
 (let ((?x2145 (ite (= 8 ?x213) (ite $x3426 213 212) (ite (= 7 ?x213) (ite $x3426 182 181) ?x4374))))
 (let ((?x2269 (ite (= 10 ?x213) (ite $x3426 274 273) (ite (= 9 ?x213) (ite $x3426 244 243) ?x2145))))
 (let ((?x1681 (ite (= 12 ?x213) (ite $x3426 335 334) (ite (= 11 ?x213) (ite $x3426 305 304) ?x2269))))
 (let ((?x1999 (+ (* 365 (- (div (- ?x507 1) 12) 1)) (div (- (div (- ?x507 1) 12) 1) 4))))
 (let ((?x3747 (+ (- ?x1999 (div (- (div (- ?x507 1) 12) 1) 100)) (div (- (div (- ?x507 1) 12) 1) 400))))
 (let ((?x3389 (+ (+ (- (+ (+ ?x3747 ?x1681) (- ?x792 1)) 730179) 0) 730179)))
 (let ((?x290 (mod ?x3389 146097)))
 (let ((?x3719 (div ?x290 36524)))
 (let ((?x2081 (ite (<= 4 ?x3719) 3 ?x3719)))
 (let ((?x2762 (- ?x290 (* ?x2081 36524))))
 (let ((?x3518 (mod ?x2762 1461)))
 (let ((?x2851 (div ?x3518 365)))
 (let ((?x1121 (ite (<= 4 ?x2851) 3 ?x2851)))
 (let ((?x3561 (+ (+ (* (div ?x3389 146097) 400) (* ?x2081 100)) (* (div ?x2762 1461) 4))))
 (let ((?x3600 (+ (+ ?x3561 ?x1121) 1)))
 (let (($x3405 (or (and (= (mod ?x3600 4) 0) (and (distinct (mod ?x3600 100) 0) true)) (= (mod ?x3600 400) 0))))
 (let ((?x2078 (- ?x3518 (* ?x1121 365))))
 (let ((?x359 (ite $x3405 31 31)))
 (let (($x2689 (>= ?x2078 ?x359)))
 (let ((?x1455 (ite $x2689 (+ (- ?x2078 ?x359) 1) (+ (- ?x2078 (ite $x3405 0 0)) 1))))
 (let ((?x4291 (ite $x3405 60 59)))
 (let (($x4096 (>= ?x2078 ?x4291)))
 (let ((?x3941 (ite $x3405 91 90)))
 (let (($x726 (>= ?x2078 ?x3941)))
 (let ((?x533 (ite $x726 (+ (- ?x2078 ?x3941) 1) (ite $x4096 (+ (- ?x2078 ?x4291) 1) ?x1455))))
 (let ((?x3857 (ite $x3405 121 120)))
 (let (($x1099 (>= ?x2078 ?x3857)))
 (let ((?x1486 (ite $x3405 152 151)))
 (let (($x2347 (>= ?x2078 ?x1486)))
 (let ((?x3882 (ite $x2347 (+ (- ?x2078 ?x1486) 1) (ite $x1099 (+ (- ?x2078 ?x3857) 1) ?x533))))
 (let ((?x1994 (ite $x3405 182 181)))
 (let (($x3029 (>= ?x2078 ?x1994)))
 (let ((?x4397 (ite $x3405 213 212)))
 (let (($x3045 (>= ?x2078 ?x4397)))
 (let ((?x2988 (ite $x3045 (+ (- ?x2078 ?x4397) 1) (ite $x3029 (+ (- ?x2078 ?x1994) 1) ?x3882))))
 (let ((?x3080 (ite $x3405 244 243)))
 (let (($x1706 (>= ?x2078 ?x3080)))
 (let ((?x1978 (ite $x3405 274 273)))
 (let (($x1746 (>= ?x2078 ?x1978)))
 (let ((?x3648 (ite $x1746 (+ (- ?x2078 ?x1978) 1) (ite $x1706 (+ (- ?x2078 ?x3080) 1) ?x2988))))
 (let ((?x2821 (ite $x3405 305 304)))
 (let (($x1707 (>= ?x2078 ?x2821)))
 (let ((?x4238 (ite $x3405 335 334)))
 (let (($x1602 (>= ?x2078 ?x4238)))
 (let ((?x4196 (ite $x1602 (+ (- ?x2078 ?x4238) 1) (ite $x1707 (+ (- ?x2078 ?x2821) 1) ?x3648))))
 (let (($x879 (= 0 0)))
 (let ((?x3514 (ite $x1099 5 (ite $x726 4 (ite $x4096 3 (ite $x2689 2 1))))))
 (let ((?x3677 (ite $x1706 9 (ite $x3045 8 (ite $x3029 7 (ite $x2347 6 ?x3514))))))
 (let ((?x1512 (+ (* (ite $x879 (div (- ?x507 1) 12) ?x3600) 12) (ite $x879 ?x213 (ite $x1602 12 (ite $x1707 11 (ite $x1746 10 ?x3677)))))))
 (and (= y_months (- ?x1512 24003)) (= y_beta (- (ite $x879 ?x792 ?x4196) 1))))))))))))))))))))))))))))))))))))))))))))))))))))))))))))))))))
(assert
 (let ((?x828 (+ x_beta 1)))
 (let ((?x3264 (+ (+ x_months 0) 24003)))
 (let ((?x3279 (- ?x3264 (* (div (- ?x3264 1) 12) 12))))
 (let ((?x1413 (ite (or (= ?x3279 4) (= ?x3279 6) (= ?x3279 9) (= ?x3279 11)) 30 31)))
 (let (($x3321 (and (= (mod (div (- ?x3264 1) 12) 4) 0) (and (distinct (mod (div (- ?x3264 1) 12) 100) 0) true))))
 (let (($x1189 (or $x3321 (= (mod (div (- ?x3264 1) 12) 400) 0))))
 (let ((?x2677 (ite (= ?x3279 2) (ite $x1189 29 28) ?x1413)))
 (let (($x1862 (> 1 ?x828)))
 (let ((?x293 (ite $x1862 1 (ite (> ?x828 ?x2677) ?x2677 ?x828))))
 (let ((?x4363 (ite (> 1 ?x293) 1 (ite (> ?x293 ?x2677) ?x2677 ?x293))))
 (let ((?x2895 (ite (= 2 ?x3279) (ite $x1189 31 31) (ite (= 1 ?x3279) (ite $x1189 0 0) 0))))
 (let ((?x3856 (ite (= 4 ?x3279) (ite $x1189 91 90) (ite (= 3 ?x3279) (ite $x1189 60 59) ?x2895))))
 (let ((?x2608 (ite (= 6 ?x3279) (ite $x1189 152 151) (ite (= 5 ?x3279) (ite $x1189 121 120) ?x3856))))
 (let ((?x3890 (ite (= 8 ?x3279) (ite $x1189 213 212) (ite (= 7 ?x3279) (ite $x1189 182 181) ?x2608))))
 (let ((?x2641 (ite (= 10 ?x3279) (ite $x1189 274 273) (ite (= 9 ?x3279) (ite $x1189 244 243) ?x3890))))
 (let ((?x3778 (ite (= 12 ?x3279) (ite $x1189 335 334) (ite (= 11 ?x3279) (ite $x1189 305 304) ?x2641))))
 (let ((?x3913 (+ (* 365 (- (div (- ?x3264 1) 12) 1)) (div (- (div (- ?x3264 1) 12) 1) 4))))
 (let ((?x971 (+ (- ?x3913 (div (- (div (- ?x3264 1) 12) 1) 100)) (div (- (div (- ?x3264 1) 12) 1) 400))))
 (let ((?x4276 (+ (+ (- (+ (+ ?x971 ?x3778) (- ?x4363 1)) 730179) 30) 730179)))
 (let ((?x2973 (mod ?x4276 146097)))
 (let ((?x2964 (div ?x2973 36524)))
 (let ((?x3873 (ite (<= 4 ?x2964) 3 ?x2964)))
 (let ((?x3910 (- ?x2973 (* ?x3873 36524))))
 (let ((?x3838 (mod ?x3910 1461)))
 (let ((?x1163 (div ?x3838 365)))
 (let ((?x1585 (ite (<= 4 ?x1163) 3 ?x1163)))
 (let ((?x1231 (+ (+ (* (div ?x4276 146097) 400) (* ?x3873 100)) (* (div ?x3910 1461) 4))))
 (let ((?x3380 (+ (+ ?x1231 ?x1585) 1)))
 (let (($x2222 (or (and (= (mod ?x3380 4) 0) (and (distinct (mod ?x3380 100) 0) true)) (= (mod ?x3380 400) 0))))
 (let ((?x850 (- ?x3838 (* ?x1585 365))))
 (let ((?x2339 (ite $x2222 31 31)))
 (let (($x2908 (>= ?x850 ?x2339)))
 (let ((?x3480 (ite $x2908 (+ (- ?x850 ?x2339) 1) (+ (- ?x850 (ite $x2222 0 0)) 1))))
 (let ((?x1739 (ite $x2222 60 59)))
 (let (($x1823 (>= ?x850 ?x1739)))
 (let ((?x4369 (ite $x2222 91 90)))
 (let (($x3031 (>= ?x850 ?x4369)))
 (let ((?x2310 (ite $x3031 (+ (- ?x850 ?x4369) 1) (ite $x1823 (+ (- ?x850 ?x1739) 1) ?x3480))))
 (let ((?x2172 (ite $x2222 121 120)))
 (let (($x268 (>= ?x850 ?x2172)))
 (let ((?x4326 (ite $x2222 152 151)))
 (let (($x1888 (>= ?x850 ?x4326)))
 (let ((?x4627 (ite $x1888 (+ (- ?x850 ?x4326) 1) (ite $x268 (+ (- ?x850 ?x2172) 1) ?x2310))))
 (let ((?x398 (ite $x2222 182 181)))
 (let (($x3229 (>= ?x850 ?x398)))
 (let ((?x1055 (ite $x2222 213 212)))
 (let (($x2396 (>= ?x850 ?x1055)))
 (let ((?x4990 (ite $x2396 (+ (- ?x850 ?x1055) 1) (ite $x3229 (+ (- ?x850 ?x398) 1) ?x4627))))
 (let ((?x3895 (ite $x2222 244 243)))
 (let (($x3067 (>= ?x850 ?x3895)))
 (let ((?x2072 (ite $x2222 274 273)))
 (let (($x647 (>= ?x850 ?x2072)))
 (let ((?x1419 (ite $x647 (+ (- ?x850 ?x2072) 1) (ite $x3067 (+ (- ?x850 ?x3895) 1) ?x4990))))
 (let ((?x1694 (ite $x2222 305 304)))
 (let (($x2485 (>= ?x850 ?x1694)))
 (let ((?x3082 (ite $x2222 335 334)))
 (let (($x4057 (>= ?x850 ?x3082)))
 (let ((?x3404 (ite $x4057 (+ (- ?x850 ?x3082) 1) (ite $x2485 (+ (- ?x850 ?x1694) 1) ?x1419))))
 (let (($x2814 (= 30 0)))
 (let ((?x2740 (ite $x268 5 (ite $x3031 4 (ite $x1823 3 (ite $x2908 2 1))))))
 (let ((?x4236 (ite $x3067 9 (ite $x2396 8 (ite $x3229 7 (ite $x1888 6 ?x2740))))))
 (let ((?x3934 (ite $x4057 12 (ite $x2485 11 (ite $x647 10 ?x4236)))))
 (let ((?x4224 (+ (* (ite $x2814 (div (- ?x3264 1) 12) ?x3380) 12) (ite $x2814 ?x3279 ?x3934))))
 (and (= z_months (- ?x4224 24003)) (= z_beta (- (ite $x2814 ?x4363 ?x3404) 1)))))))))))))))))))))))))))))))))))))))))))))))))))))))))))))))))))
(assert
 (not (and (= y_months z_months) (= y_beta z_beta))))
(check-sat)
